experiment/data/lkh-res/Vrp-Set-D-n405/Vrp-Set-D-n405-lkh/0.lkh1.vrp
NAME : 0
COMMENT : CVRP Instance
TYPE : CVRP
DIMENSION : 405
EDGE_WEIGHT_TYPE : EUC_2D
CAPACITY : 160
NODE_COORD_SECTION
1	48600	67700
2	57000	34800
3	49600	61900
4	47500	57100
5	88700	68800
6	84600	21900
7	10700	78000
8	8700	85800
9	500	92800
10	35900	79400
11	27400	52600
12	85800	2800
13	74500	18800
14	2100	85000
15	46700	47600
16	56200	68400
17	32600	82500
18	28600	48000
19	57500	35300
20	75300	32100
21	68800	34400
22	25900	76200
23	56900	60200
24	23100	89700
25	3200	91900
26	53000	55300
27	20300	67500
28	90000	16800
29	73100	24800
30	79900	20300
31	41500	30700
32	37600	63100
33	54200	48000
34	2000	91100
35	66400	52600
36	19800	96000
37	60800	64100
38	78300	55700
39	24500	87500
40	35700	79600
41	57700	50300
42	15300	73100
43	22100	80100
44	95200	38600
45	60900	57700
46	61600	56200
47	23700	60400
48	98000	55900
49	22800	69300
50	29700	73300
51	71700	35400
52	69000	47400
53	79900	19400
54	17400	79700
55	97900	6300
56	6700	83900
57	15000	91900
58	50500	11500
59	46000	75300
60	19100	63900
61	45600	76500
62	37800	68400
63	28000	60200
64	38600	72900
65	76400	26800
66	27400	88500
67	31600	82200
68	55400	47400
69	66600	46000
70	38800	66900
71	58600	57600
72	81900	33000
73	30000	73600
74	24100	75300
75	28400	84800
76	62400	61100
77	18100	70600
78	26900	70000
79	7500	89900
80	69200	60100
81	29800	76600
82	64100	34900
83	47800	74100
84	74200	7400
85	63600	44000
86	83200	15000
87	22000	61900
88	34100	26800
89	8400	94300
90	0	93300
91	14500	86600
92	30600	87000
93	55400	36000
94	59500	57900
95	63800	60700
96	56000	66900
97	23900	89800
98	43600	81400
99	24800	68100
100	7600	91800
101	17000	62700
102	77400	63400
103	67100	59500
104	59700	56200
105	13700	84200
106	55200	62900
107	34100	44700
108	63700	30100
109	35600	58000
110	57000	61900
111	24500	68100
112	5400	91300
113	27500	84500
114	72500	51900
115	75200	26700
116	68500	42200
117	44000	29300
118	66400	52200
119	82400	25300
120	30400	50400
121	96200	42400
122	33100	45500
123	68900	43300
124	88300	25800
125	32400	47800
126	87000	25800
127	75700	36900
128	93400	54700
129	25400	55600
130	12000	85700
131	10400	100000
132	88100	2900
133	31700	77700
134	53800	20700
135	23200	56200
136	86500	33100
137	78600	7000
138	28000	72700
139	62300	56900
140	44900	73900
141	32400	78100
142	58200	39900
143	100000	56900
144	49500	53500
145	72900	27400
146	29700	51100
147	62400	53900
148	2700	96900
149	23700	72900
150	19800	82900
151	53100	36600
152	49400	37200
153	3500	96400
154	99600	55900
155	46900	71000
156	34800	70500
157	62100	50200
158	20400	71000
159	56600	62000
160	81100	27600
161	24200	74400
162	8400	92400
163	23000	79800
164	32300	72900
165	40900	54600
166	25800	78500
167	38900	71400
168	54200	45700
169	22000	69900
170	64800	52500
171	46800	70100
172	49900	26200
173	79500	4400
174	8900	74300
175	30800	58500
176	46200	71200
177	26600	62300
178	53700	48700
179	65100	56000
180	21100	83800
181	63000	38800
182	22200	83700
183	19800	89300
184	53400	71400
185	77900	7200
186	11500	83600
187	50500	49300
188	63400	59700
189	54500	65500
190	41100	25000
191	26100	81200
192	54200	40400
193	21900	65300
194	79100	33400
195	70700	30300
196	32300	77500
197	60500	64300
198	36100	69000
199	67700	55000
200	31600	51000
201	50000	70100
202	52200	50800
203	58500	20700
204	3600	87500
205	89200	60700
206	27100	55800
207	16300	67800
208	4100	88400
209	67400	53400
210	35000	79700
211	35400	83600
212	35400	74200
213	62300	56500
214	81600	25800
215	52400	64100
216	71700	53100
217	27100	68800
218	53900	51200
219	32900	71800
220	6300	91700
221	19000	74000
222	58000	65200
223	68600	57600
224	70700	50800
225	79100	31800
226	32100	54200
227	77300	55500
228	40600	75300
229	54100	54400
230	18900	70400
231	56900	63900
232	54000	40100
233	68000	55300
234	77300	19200
235	46800	74800
236	71900	50500
237	43600	53200
238	61400	53300
239	68200	52200
240	44900	62500
241	39400	75000
242	26300	82800
243	23700	66800
244	40000	58100
245	92400	0
246	25100	73600
247	56800	35000
248	5900	92900
249	11900	90000
250	40200	36700
251	900	92200
252	81200	36300
253	40700	41500
254	80300	3000
255	58900	65800
256	26100	57900
257	81900	27800
258	44200	71500
259	68100	52000
260	25000	55100
261	13200	62500
262	46700	29800
263	50500	53500
264	25200	70300
265	76700	19600
266	8200	83900
267	30200	44500
268	29500	72000
269	17800	69900
270	24400	50700
271	23300	74300
272	19500	86500
273	69900	54000
274	56700	31200
275	73900	32700
276	67800	41700
277	52700	50000
278	75500	44300
279	1600	88600
280	21200	83000
281	21000	66900
282	57200	64700
283	57600	37300
284	56400	49400
285	31300	75900
286	75300	8900
287	23200	78400
288	65700	37100
289	42600	65900
290	44600	74300
291	66500	38800
292	28900	55200
293	62100	56600
294	56600	42300
295	22300	65900
296	62800	61100
297	22400	58500
298	64700	39000
299	66300	33100
300	82800	37200
301	64600	32400
302	59300	63700
303	48100	60700
304	39900	68900
305	46700	59700
306	48700	74100
307	95400	38800
308	25100	72900
309	32100	65000
310	8400	90700
311	24500	82700
312	30000	63500
313	23800	76900
314	71100	53200
315	75300	45500
316	26400	84300
317	11800	86900
318	16700	71700
319	16200	83900
320	85900	1600
321	26100	49000
322	69600	46200
323	69100	54000
324	17600	74100
325	46100	73800
326	31300	73500
327	62400	34700
328	69700	50600
329	30200	41400
330	58400	69000
331	62200	61100
332	79700	16800
333	68600	56800
334	22400	80300
335	82400	43100
336	59200	61300
337	66700	55300
338	34900	20400
339	81300	22000
340	88900	17300
341	81300	22400
342	27300	56100
343	8200	87000
344	76000	33600
345	12900	88600
346	22500	62700
347	41600	39900
348	65000	42500
349	67900	58100
350	61300	41900
351	23000	73700
352	40600	18200
353	65500	52900
354	25100	61700
355	59600	35300
356	27400	63400
357	18800	64300
358	58400	42000
359	23700	87900
360	21200	69000
361	29700	63200
362	63600	36600
363	26300	79600
364	90900	60400
365	40400	83800
366	55100	47200
367	21300	65000
368	67700	55000
369	5300	80400
370	88400	63900
371	5400	92500
372	29100	58200
373	89300	26300
374	17300	82700
375	72000	47200
376	68000	52100
377	82700	40200
378	54300	67600
379	58100	57800
380	44200	75300
381	25600	58200
382	40800	76000
383	75200	35100
384	26000	50600
385	83200	1300
386	25700	84100
387	61400	55900
388	22700	63800
389	53300	67300
390	86700	20800
391	5600	90300
392	46100	43700
393	9800	88600
394	82500	15300
395	17800	77100
396	16800	86700
397	39000	72800
398	60900	61800
399	19000	75200
400	60100	62600
401	71300	47900
402	47300	77600
403	81000	3200
404	26600	71400
405	53200	36800
DEMAND_SECTION
1	0
2	7
3	3
4	5
5	3
6	5
7	5
8	13
9	7
10	4
11	6
12	5
13	7
14	9
15	3
16	9
17	13
18	6
19	7
20	5
21	6
22	9
23	17
24	5
25	3
26	5
27	21
28	9
29	8
30	9
31	9
32	4
33	5
34	6
35	13
36	9
37	9
38	5
39	13
40	7
41	6
42	5
43	10
44	9
45	3
46	7
47	7
48	9
49	9
50	13
51	4
52	4
53	5
54	10
55	5
56	10
57	4
58	9
59	5
60	7
61	4
62	12
63	4
64	6
65	4
66	9
67	6
68	12
69	6
70	9
71	6
72	10
73	7
74	3
75	4
76	3
77	4
78	7
79	10
80	7
81	13
82	10
83	5
84	5
85	11
86	5
87	5
88	3
89	4
90	5
91	10
92	4
93	24
94	5
95	6
96	6
97	4
98	7
99	8
100	5
101	9
102	6
103	6
104	4
105	5
106	12
107	7
108	5
109	6
110	7
111	5
112	9
113	6
114	4
115	6
116	10
117	5
118	10
119	7
120	7
121	7
122	4
123	10
124	5
125	5
126	7
127	7
128	5
129	6
130	4
131	4
132	5
133	3
134	8
135	7
136	7
137	8
138	4
139	8
140	8
141	10
142	9
143	6
144	9
145	9
146	3
147	9
148	11
149	10
150	4
151	8
152	3
153	5
154	7
155	6
156	8
157	5
158	2
159	9
160	15
161	7
162	8
163	4
164	8
165	6
166	3
167	10
168	4
169	8
170	10
171	13
172	11
173	6
174	7
175	5
176	9
177	6
178	6
179	9
180	6
181	8
182	4
183	13
184	9
185	6
186	5
187	6
188	3
189	3
190	6
191	5
192	6
193	8
194	11
195	8
196	3
197	6
198	7
199	12
200	7
201	6
202	5
203	15
204	15
205	7
206	11
207	10
208	3
209	8
210	4
211	5
212	4
213	6
214	2
215	7
216	3
217	11
218	4
219	11
220	11
221	5
222	10
223	10
224	4
225	4
226	25
227	2
228	4
229	6
230	5
231	13
232	9
233	4
234	6
235	8
236	5
237	19
238	7
239	6
240	3
241	8
242	6
243	2
244	6
245	7
246	4
247	5
248	7
249	11
250	7
251	3
252	8
253	5
254	6
255	5
256	8
257	8
258	2
259	11
260	13
261	19
262	5
263	2
264	4
265	5
266	9
267	15
268	12
269	11
270	8
271	5
272	8
273	4
274	9
275	4
276	7
277	7
278	5
279	11
280	3
281	9
282	8
283	7
284	8
285	5
286	3
287	6
288	9
289	4
290	9
291	3
292	7
293	5
294	5
295	8
296	4
297	5
298	7
299	5
300	8
301	6
302	4
303	5
304	4
305	6
306	9
307	6
308	12
309	5
310	3
311	5
312	8
313	7
314	4
315	5
316	8
317	6
318	14
319	5
320	8
321	2
322	7
323	7
324	4
325	5
326	6
327	6
328	8
329	10
330	5
331	9
332	7
333	6
334	4
335	9
336	3
337	4
338	3
339	5
340	4
341	3
342	12
343	4
344	2
345	7
346	9
347	12
348	6
349	6
350	11
351	12
352	4
353	8
354	11
355	4
356	3
357	4
358	3
359	11
360	6
361	7
362	8
363	8
364	8
365	4
366	7
367	7
368	7
369	7
370	7
371	8
372	4
373	5
374	11
375	3
376	9
377	11
378	3
379	7
380	15
381	6
382	5
383	4
384	7
385	3
386	4
387	7
388	6
389	3
390	6
391	11
392	4
393	7
394	9
395	5
396	10
397	4
398	2
399	5
400	6
401	11
402	4
403	5
404	8
405	4
DEPOT_SECTION
1
-1
EOF
