experiment/data/lkh-res/Vrp-Set-D-n405/Vrp-Set-D-n405-lkh/0.lkh1.tour
NAME : 0.1740361.tour
COMMENT : Length = 1740361
COMMENT : Found by LKH-3 [Keld Helsgaun] Tue Apr  9 01:26:08 2024
TYPE : TOUR
DIMENSION : 422
TOUR_SECTION
1
201
184
16
96
255
222
282
231
110
159
106
215
410
336
188
209
323
273
314
216
114
236
401
224
328
239
259
376
118
35
353
170
147
104
71
379
422
23
94
387
46
293
213
139
179
337
199
368
233
333
223
349
103
95
296
76
331
398
400
302
189
389
408
305
4
15
392
253
347
250
31
117
190
88
338
352
58
203
134
172
262
152
168
33
178
277
202
263
303
421
26
218
284
68
366
294
358
142
283
355
19
247
2
274
93
151
405
232
192
187
144
407
72
373
124
126
6
390
340
28
55
245
132
12
320
385
403
254
173
137
185
84
286
86
394
65
115
20
275
51
420
399
395
54
186
343
208
204
14
279
34
25
251
9
90
148
153
131
36
24
97
39
66
92
211
419
70
309
312
361
356
177
354
346
87
47
297
135
260
129
206
342
256
381
63
372
175
32
289
414
304
62
198
156
219
268
404
308
149
351
271
161
246
138
50
73
326
164
167
416
240
244
109
226
292
11
384
270
321
18
267
329
107
122
125
120
146
200
165
237
418
397
64
212
285
81
22
74
313
287
163
334
43
280
180
182
311
242
386
316
113
75
67
17
141
196
258
412
3
229
41
85
350
181
298
362
82
327
108
301
299
288
291
276
116
123
322
52
69
157
238
415
388
193
367
60
357
101
261
207
269
77
230
360
27
281
295
243
111
99
217
417
306
83
235
59
61
402
98
365
210
40
10
241
228
382
380
290
140
325
176
155
171
406
133
363
191
150
374
319
105
130
317
8
266
56
369
7
174
42
318
324
221
158
169
49
264
78
413
348
21
195
145
29
13
265
234
332
53
30
339
341
119
214
257
160
225
194
344
383
127
278
315
375
45
409
197
37
80
227
38
335
377
300
252
136
44
307
121
154
143
48
128
364
205
370
5
102
330
378
411
166
272
396
91
345
249
393
310
79
391
112
371
248
220
100
162
89
57
183
359
-1
EOF
